c instance by G2
c solution = 11011111010
c Known solution cost is 559 
p cnf 11 30
w 10 63 73 49 96 47 26 56 39 18 82
8 9 2 0
-8 1 -9 0
-5 -8 -11 0
2 -7 11 0
4 7 5 0
4 9 -2 0
5 -4 -7 0
4 -8 9 0
8 -7 9 0
7 11 -10 0
1 10 8 0
-2 -6 8 0
2 -9 -10 0
6 8 9 0
-5 6 3 0
8 -7 1 0
-11 -4 3 0
-8 -2 1 0
-7 -8 -9 0
10 -4 -9 0
-8 -7 10 0
-7 10 9 0
5 -4 -10 0
-9 -10 -5 0
-10 -2 1 0
2 -10 -7 0
7 -11 -3 0
-4 -10 -3 0
5 -6 3 0
-6 -7 10 0
